models/cnf/busybox_2010-05-02_14-17-07.cnf
p cnf 631 1312
c 1 __Root__
c 2 CONFIG_DEFAULT_SETFONT_DIR
c 3 CONFIG_SETFONT
c 4 CONFIG_TAR
c 5 CONFIG_FEATURE_TAR_SELINUX
c 6 CONFIG_FEATURE_RUNCON_LONG_OPTIONS
c 7 CONFIG_LONG_OPTS
c 8 CONFIG_SELINUX
c 9 CONFIG_VOLUMEID
c 10 CONFIG_FEATURE_VOLUMEID_OCFS2
c 11 CONFIG_FEATURE_MOUNT_LOOP
c 12 CONFIG_FEATURE_MOUNT_LOOP_CREATE
c 13 CONFIG_FEATURE_RUN_PARTS_LONG_OPTIONS
c 14 CONFIG_FEATURE_VOLUMEID_FAT
c 15 CONFIG_FIND
c 16 CONFIG_FEATURE_FIND_EXEC
c 17 CONFIG_DHCPRELAY
c 18 CONFIG_UDHCP_DEBUG
c 19 CONFIG_UDHCPD
c 20 CONFIG_FEATURE_WGET_STATUSBAR
c 21 CONFIG_WGET
c 22 CONFIG_FEATURE_EDITING
c 23 CONFIG_FEATURE_EDITING_VI
c 24 CONFIG_TRACEROUTE
c 25 CONFIG_FEATURE_TRACEROUTE_VERBOSE
c 26 CONFIG_FEATURE_CPIO_O
c 27 CONFIG_CPIO
c 28 CONFIG_FEATURE_SUID
c 29 CONFIG_VLOCK
c 30 CONFIG_FEATURE_IP_ROUTE
c 31 CONFIG_FEATURE_IFUPDOWN_IP_BUILTIN
c 32 CONFIG_MOUNT
c 33 CONFIG_FEATURE_MTAB_SUPPORT
c 34 CONFIG_FEATURE_MOUNT_FAKE
c 35 CONFIG_CHAT
c 36 CONFIG_FEATURE_CHAT_CLR_ABORT
c 37 CONFIG_AR
c 38 CONFIG_FEATURE_AR_CREATE
c 39 CONFIG_PING6
c 40 CONFIG_PING
c 41 CONFIG_SESTATUS
c 42 CONFIG_SELINUXENABLED
c 43 CONFIG_DEFAULT_MODULES_DIR
c 44 CONFIG_DEPMOD
c 45 CONFIG_BEEP
c 46 CONFIG_FEATURE_BEEP_LENGTH_MS
c 47 CONFIG_FEATURE_SYSLOG
c 48 CONFIG_ZCIP
c 49 CONFIG_FEATURE_VOLUMEID_LUKS
c 50 CONFIG_TFTP
c 51 CONFIG_FEATURE_TFTP_GET
c 52 CONFIG_TFTPD
c 53 CONFIG_SU
c 54 CONFIG_FEATURE_FDISK_WRITABLE
c 55 CONFIG_FEATURE_SGI_LABEL
c 56 CONFIG_NAMEIF
c 57 CONFIG_FEATURE_WGET_LONG_OPTIONS
c 58 CONFIG_DMESG
c 59 CONFIG_FEATURE_DMESG_PRETTY
c 60 CONFIG_HDPARM
c 61 CONFIG_FEATURE_HDPARM_HDIO_TRISTATE_HWIF
c 62 CONFIG_FEATURE_CHCON_LONG_OPTIONS
c 63 CONFIG_CHCON
c 64 CONFIG_DMALLOC
c 65 CONFIG_EFENCE
c 66 CONFIG_FTPD
c 67 CONFIG_FEATURE_FTPD_ACCEPT_BROKEN_LIST
c 68 CONFIG_LOGIN_SCRIPTS
c 69 CONFIG_LOGIN
c 70 CONFIG_INSTALL_SH_APPLET_SCRIPT_WRAPPER
c 71 CONFIG_INSTALL_SH_APPLET_SYMLINK
c 72 CONFIG_HEAD
c 73 CONFIG_FEATURE_FANCY_HEAD
c 74 CONFIG_EXPR
c 75 CONFIG_EXPR_MATH_SUPPORT_64
c 76 CONFIG_SETFILES
c 77 CONFIG_FEATURE_INSMOD_LOAD_MAP
c 78 CONFIG_FEATURE_INSMOD_LOAD_MAP_FULL
c 79 CONFIG_IPADDR
c 80 CONFIG_FEATURE_IP_SHORT_FORMS
c 81 CONFIG_USE_BB_PWD_GRP
c 82 CONFIG_USE_BB_SHADOW
c 83 CONFIG_LZOP
c 84 CONFIG_LZOP_COMPR_HIGH
c 85 CONFIG_FEATURE_TELNET_TTYPE
c 86 CONFIG_TELNET
c 87 CONFIG_FIRST_SYSTEM_ID
c 88 CONFIG_ADDUSER
c 89 CONFIG_ADDGROUP
c 90 CONFIG_HWCLOCK
c 91 CONFIG_FEATURE_HWCLOCK_ADJTIME_FHS
c 92 CONFIG_DEFAULT_DEPMOD_FILE
c 93 CONFIG_FEATURE_CHAT_NOFAIL
c 94 CONFIG_FEATURE_CROND_DIR
c 95 CONFIG_CRONTAB
c 96 CONFIG_CROND
c 97 CONFIG_FEATURE_FBSET_FANCY
c 98 CONFIG_FBSET
c 99 CONFIG_FEATURE_INIT_COREDUMPS
c 100 CONFIG_INIT
c 101 CONFIG_FEATURE_MOUNT_CIFS
c 102 CONFIG_FEATURE_FANCY_ECHO
c 103 CONFIG_ASH_BUILTIN_ECHO
c 104 CONFIG_HUSH
c 105 CONFIG_ECHO
c 106 CONFIG_ASH
c 107 CONFIG_ASH_OPTIMIZE_FOR_SIZE
c 108 CONFIG_NC
c 109 CONFIG_NC_SERVER
c 110 CONFIG_UNIX2DOS
c 111 CONFIG_DOS2UNIX
c 112 CONFIG_FEATURE_MIME_CHARSET
c 113 CONFIG_MAKEMIME
c 114 CONFIG_BUILD_LIBBUSYBOX
c 115 CONFIG_FEATURE_SHARED_BUSYBOX
c 116 CONFIG_IPCS
c 117 CONFIG_FEATURE_INETD_RPC
c 118 CONFIG_INETD
c 119 CONFIG_FEATURE_LAST_FANCY
c 120 CONFIG_LAST
c 121 CONFIG_LESS
c 122 CONFIG_FEATURE_LESS_BRACKETS
c 123 CONFIG_FEATURE_SU_SYSLOG
c 124 CONFIG_IPCALC
c 125 CONFIG_FEATURE_IPCALC_LONG_OPTIONS
c 126 CONFIG_HUSH_LOCAL
c 127 CONFIG_HUSH_FUNCTIONS
c 128 CONFIG_FEATURE_RMDIR_LONG_OPTIONS
c 129 CONFIG_FEATURE_VOLUMEID_ROMFS
c 130 CONFIG_FEATURE_SH_IS_ASH
c 131 CONFIG_NOMMU
c 132 CONFIG_FEATURE_MOUNT_FSTAB
c 133 CONFIG_FEATURE_HDPARM_HDIO_DRIVE_RESET
c 134 CONFIG_DEVFSD_FG_NP
c 135 CONFIG_DEVFSD
c 136 CONFIG_FEATURE_NTPD_SERVER
c 137 CONFIG_NTPD
c 138 CONFIG_FEATURE_UDHCPD_WRITE_LEASES_EARLY
c 139 CONFIG_FEATURE_FIND_PATH
c 140 CONFIG_FEATURE_FIND_DELETE
c 141 CONFIG_IPCRM
c 142 CONFIG_FEATURE_CALL_TELINIT
c 143 CONFIG_FEATURE_NETSTAT_PRG
c 144 CONFIG_NETSTAT
c 145 CONFIG_FEATURE_IPV6
c 146 CONFIG_FEATURE_IFUPDOWN_IPV6
c 147 CONFIG_FEATURE_VOLUMEID_HFS
c 148 CONFIG_FEATURE_BUFFERS_GO_IN_BSS
c 149 CONFIG_FEATURE_BUFFERS_USE_MALLOC
c 150 CONFIG_SULOGIN
c 151 CONFIG_FEATURE_SPLIT_FANCY
c 152 CONFIG_SPLIT
c 153 CONFIG_FEATURE_TAR_UNAME_GNAME
c 154 CONFIG_FDISK
c 155 CONFIG_FEATURE_AIX_LABEL
c 156 CONFIG_SH_MATH_SUPPORT
c 157 CONFIG_SH_MATH_SUPPORT_64
c 158 CONFIG_FEATURE_FIND_XDEV
c 159 CONFIG_TEE
c 160 CONFIG_FEATURE_TEE_USE_BLOCK_IO
c 161 CONFIG_FEATURE_MAKEDEVS_TABLE
c 162 CONFIG_FEATURE_MAKEDEVS_LEAF
c 163 CONFIG_FEATURE_IP_TUNNEL
c 164 CONFIG_IPTUNNEL
c 165 CONFIG_ASH_JOB_CONTROL
c 166 CONFIG_FEATURE_MOUNT_NFS
c 167 CONFIG_INSTALL_APPLET_HARDLINKS
c 168 CONFIG_INSTALL_APPLET_SYMLINKS
c 169 CONFIG_INSTALL_APPLET_SCRIPT_WRAPPERS
c 170 CONFIG_FEATURE_LAST_SMALL
c 171 CONFIG_FEATURE_CP_LONG_OPTIONS
c 172 CONFIG_FEATURE_KILL_REMOVED
c 173 CONFIG_FEATURE_KILL_DELAY
c 174 CONFIG_INSTALL_SH_APPLET_HARDLINK
c 175 CONFIG_FEATURE_TUNCTL_UG
c 176 CONFIG_TUNCTL
c 177 CONFIG_FEATURE_VI_MAX_LEN
c 178 CONFIG_VI
c 179 CONFIG_FEATURE_IPC_SYSLOG
c 180 CONFIG_SYSLOGD
c 181 CONFIG_FEATURE_COPYBUF_KB
c 182 CONFIG_FEATURE_LESS_MAXLINES
c 183 CONFIG_LASH
c 184 CONFIG_MSH
c 185 CONFIG_FEATURE_SH_EXTRA_QUIET
c 186 CONFIG_ASH_MAIL
c 187 CONFIG_MODPROBE
c 188 CONFIG_MODPROBE_SMALL
c 189 CONFIG_FEATURE_UNEXPAND_LONG_OPTIONS
c 190 CONFIG_UNEXPAND
c 191 CONFIG_FEATURE_FIND_MMIN
c 192 CONFIG_FEATURE_VOLUMEID_CRAMFS
c 193 CONFIG_UDHCPC_SLACK_FOR_BUGGY_SERVERS
c 194 CONFIG_FEATURE_IPC_SYSLOG_BUFFER_SIZE
c 195 CONFIG_FEATURE_FIND_DEPTH
c 196 CONFIG_FEATURE_ROTATE_LOGFILE
c 197 CONFIG_FEATURE_HDPARM_HDIO_UNREGISTER_HWIF
c 198 CONFIG_FEATURE_DIFF_LONG_OPTIONS
c 199 CONFIG_FEATURE_MINIX2
c 200 CONFIG_FSCK_MINIX
c 201 CONFIG_MKFS_MINIX
c 202 CONFIG_FEATURE_DD_THIRD_STATUS_LINE
c 203 CONFIG_FEATURE_DD_SIGNAL_HANDLING
c 204 CONFIG_FEATURE_INSTALL_LONG_OPTIONS
c 205 CONFIG_FEATURE_INSMOD_KSYMOOPS_SYMBOLS
c 206 CONFIG_FEATURE_2_4_MODULES
c 207 CONFIG_FEATURE_SEAMLESS_GZ
c 208 CONFIG_FEATURE_SEAMLESS_BZ2
c 209 CONFIG_FEATURE_TAR_AUTODETECT
c 210 CONFIG_FEATURE_SEAMLESS_LZMA
c 211 CONFIG_FEATURE_SEAMLESS_Z
c 212 CONFIG_LOADFONT
c 213 CONFIG_FEATURE_LOADFONT_PSF2
c 214 CONFIG_DPKG
c 215 CONFIG_FEATURE_VI_8BIT
c 216 CONFIG_IFUPDOWN
c 217 CONFIG_FEATURE_IFUPDOWN_IP
c 218 CONFIG_FEATURE_OSF_LABEL
c 219 CONFIG_FEATURE_VOLUMEID_UDF
c 220 CONFIG_FEATURE_LS_COLOR
c 221 CONFIG_PS
c 222 CONFIG_FEATURE_PS_TIME
c 223 CONFIG_FEATURE_HTTPD_PROXY
c 224 CONFIG_HTTPD
c 225 CONFIG_FEATURE_INSMOD_LOADINKMEM
c 226 CONFIG_INSMOD
c 227 CONFIG_FEATURE_SH_IS_HUSH
c 228 CONFIG_NC_EXTRA
c 229 CONFIG_ASH_RANDOM_SUPPORT
c 230 CONFIG_FEATURE_TAR_LONG_OPTIONS
c 231 CONFIG_RMMOD
c 232 CONFIG_LSMOD
c 233 CONFIG_IP
c 234 CONFIG_DEBUG_PESSIMIZE
c 235 CONFIG_DEBUG
c 236 CONFIG_LAST_SYSTEM_ID
c 237 CONFIG_FEATURE_FIND_MTIME
c 238 CONFIG_ENV
c 239 CONFIG_FEATURE_ENV_LONG_OPTIONS
c 240 CONFIG_DHCPD_LEASES_FILE
c 241 CONFIG_FEATURE_IP_LINK
c 242 CONFIG_IPLINK
c 243 CONFIG_SV_DEFAULT_SERVICE_DIR
c 244 CONFIG_SV
c 245 CONFIG_FEATURE_TR_EQUIV
c 246 CONFIG_TR
c 247 CONFIG_FEATURE_BEEP_FREQ
c 248 CONFIG_RMDIR
c 249 CONFIG_IFCONFIG
c 250 CONFIG_FEATURE_IFCONFIG_SLIP
c 251 CONFIG_UDHCPC
c 252 CONFIG_FEATURE_UDHCPC_ARPING
c 253 CONFIG_HALT
c 254 CONFIG_FEATURE_SH_NOFORK
c 255 CONFIG_ASH_EXPAND_PRMT
c 256 CONFIG_FEATURE_MDEV_RENAME
c 257 CONFIG_FEATURE_MDEV_CONF
c 258 CONFIG_MORE
c 259 CONFIG_LS
c 260 CONFIG_FEATURE_AUTOWIDTH
c 261 CONFIG_DD
c 262 CONFIG_HAVE_DOT_CONFIG
c 263 CONFIG_FEATURE_SUID_CONFIG
c 264 CONFIG_DIFF
c 265 CONFIG_FEATURE_PREFER_APPLETS
c 266 CONFIG_FEATURE_HTTPD_CGI
c 267 CONFIG_FEATURE_HTTPD_CONFIG_WITH_SCRIPT_INTERPR
c 268 CONFIG_FEATURE_SHADOWPASSWDS
c 269 CONFIG_FEATURE_LOADFONT_RAW
c 270 CONFIG_FEATURE_EDITING_HISTORY
c 271 CONFIG_FEATURE_NOLOGIN
c 272 CONFIG_INSTALL_APPLET_DONT
c 273 CONFIG_ASH_BASH_COMPAT
c 274 CONFIG_TEST
c 275 CONFIG_FEATURE_TEST_64
c 276 CONFIG_ASH_BUILTIN_TEST
c 277 CONFIG_FEATURE_EXPAND_LONG_OPTIONS
c 278 CONFIG_EXPAND
c 279 CONFIG_FEATURE_EDITING_MAX_LEN
c 280 CONFIG_UDHCPC_DEFAULT_SCRIPT
c 281 CONFIG_FEATURE_SETFONT_TEXTUAL_MAP
c 282 CONFIG_FEATURE_FANCY_SLEEP
c 283 CONFIG_FEATURE_FLOAT_SLEEP
c 284 CONFIG_STAT
c 285 CONFIG_FEATURE_STAT_FORMAT
c 286 CONFIG_FEATURE_CHECK_TAINTED_MODULE
c 287 CONFIG_FEATURE_TELNETD_STANDALONE
c 288 CONFIG_FEATURE_TELNETD_INETD_WAIT
c 289 CONFIG_FEATURE_IFUPDOWN_IFCONFIG_BUILTIN
c 290 CONFIG_ROUTE
c 291 CONFIG_FEATURE_LESS_DASHCMD
c 292 CONFIG_FEATURE_SUN_LABEL
c 293 CONFIG_FEATURE_LESS_WINCH
c 294 CONFIG_LOCALE_SUPPORT
c 295 CONFIG_UNICODE_USING_LOCALE
c 296 CONFIG_FEATURE_TFTP_PUT
c 297 CONFIG_UNICODE_SUPPORT
c 298 CONFIG_FEATURE_CHECK_UNICODE_IN_ENV
c 299 CONFIG_FEATURE_TOP_CPU_USAGE_PERCENTAGE
c 300 CONFIG_TOP
c 301 CONFIG_FEATURE_LS_TIMESTAMPS
c 302 CONFIG_FEATURE_LS_USERNAME
c 303 CONFIG_FEATURE_CROND_D
c 304 CONFIG_FEATURE_CHECK_NAMES
c 305 CONFIG_FEATURE_FIND_PERM
c 306 CONFIG_FEATURE_CHAT_SWALLOW_OPTS
c 307 CONFIG_FEATURE_INETD_SUPPORT_BUILTIN_ECHO
c 308 CONFIG_IFUPDOWN_UDHCPC_CMD_OPTIONS
c 309 CONFIG_FEATURE_BUFFERS_GO_ON_STACK
c 310 CONFIG_FEATURE_CPIO_P
c 311 CONFIG_FEATURE_TAR_NOPRESERVE_TIME
c 312 CONFIG_FEATURE_TAR_CREATE
c 313 CONFIG_MV
c 314 CONFIG_FEATURE_MV_LONG_OPTIONS
c 315 CONFIG_FEATURE_EDITING_SAVEHISTORY
c 316 CONFIG_FEATURE_XARGS_SUPPORT_QUOTES
c 317 CONFIG_XARGS
c 318 CONFIG_SENDMAIL
c 319 CONFIG_REFORMIME
c 320 CONFIG_UNICODE_BIDI_SUPPORT
c 321 CONFIG_UNICODE_NEUTRAL_TABLE
c 322 CONFIG_FEATURE_CHAT_IMPLICIT_CR
c 323 CONFIG_LAST_SUPPORTED_WCHAR
c 324 CONFIG_FEATURE_FIND_INUM
c 325 CONFIG_FEATURE_HTTPD_SET_REMOTE_PORT_TO_ENV
c 326 CONFIG_FEATURE_IFCONFIG_STATUS
c 327 CONFIG_FEATURE_TAB_COMPLETION
c 328 CONFIG_TELINIT_PATH
c 329 CONFIG_FEATURE_LS_FOLLOWLINKS
c 330 CONFIG_FEATURE_IFCONFIG_MEMSTART_IOADDR_IRQ
c 331 CONFIG_FEATURE_GREP_CONTEXT
c 332 CONFIG_GREP
c 333 CONFIG_FEATURE_IP_ADDRESS
c 334 CONFIG_FEATURE_LS_COLOR_IS_DEFAULT
c 335 CONFIG_FEATURE_INSMOD_VERSION_CHECKING
c 336 CONFIG_BLKID
c 337 CONFIG_FEATURE_MOUNT_LABEL
c 338 CONFIG_FINDFS
c 339 CONFIG_FEATURE_GZIP_LONG_OPTIONS
c 340 CONFIG_FEATURE_DIFF_DIR
c 341 CONFIG_FEATURE_PASSWD_WEAK_CHECK
c 342 CONFIG_PASSWD
c 343 CONFIG_FEATURE_IP_RARE_PROTOCOLS
c 344 CONFIG_TRACEROUTE6
c 345 CONFIG_FEATURE_BRCTL_FANCY
c 346 CONFIG_BRCTL
c 347 CONFIG_IPRULE
c 348 CONFIG_FEATURE_VI_DOT_CMD
c 349 CONFIG_FEATURE_SORT_BIG
c 350 CONFIG_SORT
c 351 CONFIG_DF
c 352 CONFIG_DU
c 353 CONFIG_FEATURE_HUMAN_READABLE
c 354 CONFIG_FEATURE_FDISK_ADVANCED
c 355 CONFIG_FEATURE_LOGREAD_REDUCED_LOCKING
c 356 CONFIG_LOGREAD
c 357 CONFIG_FEATURE_DATE_COMPAT
c 358 CONFIG_DATE
c 359 CONFIG_FEATURE_FIND_NOT
c 360 CONFIG_READLINK
c 361 CONFIG_FEATURE_READLINK_FOLLOW
c 362 CONFIG_FEATURE_VI_WIN_RESIZE
c 363 CONFIG_STATIC
c 364 CONFIG_NO_DEBUG_LIB
c 365 CONFIG_FEATURE_HAVE_RPC
c 366 CONFIG_FEATURE_AWK_LIBM
c 367 CONFIG_AWK
c 368 CONFIG_FEATURE_HDPARM_GET_IDENTITY
c 369 CONFIG_FEATURE_VOLUMEID_LINUXSWAP
c 370 CONFIG_FEATURE_INETD_SUPPORT_BUILTIN_DAYTIME
c 371 CONFIG_FEATURE_CHOWN_LONG_OPTIONS
c 372 CONFIG_FEATURE_INETD_SUPPORT_BUILTIN_CHARGEN
c 373 CONFIG_GETOPT
c 374 CONFIG_FEATURE_GETOPT_LONG
c 375 CONFIG_FEATURE_REFORMIME_COMPAT
c 376 CONFIG_HUSH_RANDOM_SUPPORT
c 377 CONFIG_FEATURE_COMPRESS_USAGE
c 378 CONFIG_SHOW_USAGE
c 379 CONFIG_FEATURE_FIND_MAXDEPTH
c 380 CONFIG_FEATURE_FIND_TYPE
c 381 CONFIG_ASH_GETOPTS
c 382 CONFIG_FEATURE_EJECT_SCSI
c 383 CONFIG_EJECT
c 384 CONFIG_FEATURE_PS_UNUSUAL_SYSTEMS
c 385 CONFIG_GZIP
c 386 CONFIG_FEATURE_TAR_GNU_EXTENSIONS
c 387 CONFIG_FEATURE_HDPARM_HDIO_SCAN_HWIF
c 388 CONFIG_FEATURE_USERNAME_COMPLETION
c 389 CONFIG_FEATURE_INDIVIDUAL
c 390 CONFIG_GETTY
c 391 CONFIG_FEATURE_IFUPDOWN_IPV4
c 392 CONFIG_FEATURE_PIDOF_SINGLE
c 393 CONFIG_PIDOF
c 394 CONFIG_FEATURE_FIND_LINKS
c 395 CONFIG_FEATURE_POPMAILDIR_DELIVERY
c 396 CONFIG_POPMAILDIR
c 397 CONFIG_FEATURE_START_STOP_DAEMON_LONG_OPTIONS
c 398 CONFIG_FEATURE_VI_READONLY
c 399 CONFIG_FEATURE_HTTPD_BASIC_AUTH
c 400 CONFIG_FEATURE_GREP_EGREP_ALIAS
c 401 CONFIG_FEATURE_HWCLOCK_LONG_OPTIONS
c 402 CONFIG_FEATURE_INETD_SUPPORT_BUILTIN_DISCARD
c 403 CONFIG_IFUPDOWN_IFSTATE_PATH
c 404 CONFIG_FEATURE_VOLUMEID_XFS
c 405 CONFIG_FEATURE_LS_SORTFILES
c 406 CONFIG_FEATURE_TR_CLASSES
c 407 CONFIG_FEATURE_VI_SEARCH
c 408 CONFIG_FEATURE_ACPID_COMPAT
c 409 CONFIG_ACPID
c 410 CONFIG_LOAD_POLICY
c 411 CONFIG_FEATURE_TOPMEM
c 412 CONFIG_SETENFORCE
c 413 CONFIG_RUN_PARTS
c 414 CONFIG_FEATURE_RUN_PARTS_FANCY
c 415 CONFIG_FEATURE_TASKSET_FANCY
c 416 CONFIG_TASKSET
c 417 CONFIG_HUSH_HELP
c 418 CONFIG_FEATURE_USE_TERMIOS
c 419 CONFIG_HEXDUMP
c 420 CONFIG_HD
c 421 CONFIG_FEATURE_PREFER_IPV4_ADDRESS
c 422 CONFIG_FEATURE_SWAPON_PRI
c 423 CONFIG_SWAPONOFF
c 424 CONFIG_FEATURE_TOP_SMP_CPU
c 425 CONFIG_FEATURE_TOP_CPU_GLOBAL_PERCENTS
c 426 CONFIG_FEATURE_MKDIR_LONG_OPTIONS
c 427 CONFIG_HUSH_INTERACTIVE
c 428 CONFIG_HUSH_JOB
c 429 CONFIG_FEATURE_USE_INITTAB
c 430 CONFIG_FEATURE_SH_IS_NONE
c 431 CONFIG_FEATURE_SH_STANDALONE
c 432 CONFIG_FEATURE_XARGS_SUPPORT_ZERO_TERM
c 433 CONFIG_FEATURE_LS_FILETYPES
c 434 CONFIG_RUNSVDIR
c 435 CONFIG_FEATURE_RUNSVDIR_LOG
c 436 CONFIG_FEATURE_FANCY_PING
c 437 CONFIG_RUNCON
c 438 CONFIG_FEATURE_ADDUSER_TO_GROUP
c 439 CONFIG_FEATURE_FIND_REGEX
c 440 CONFIG_FEATURE_HTTPD_SETUID
c 441 CONFIG_FEATURE_LS_RECURSIVE
c 442 CONFIG_WC
c 443 CONFIG_FEATURE_WC_LARGE
c 444 CONFIG_FEATURE_LESS_MARKS
c 445 CONFIG_FEATURE_NAMEIF_EXTENDED
c 446 CONFIG_FEATURE_VOLUMEID_BTRFS
c 447 CONFIG_FEATURE_VI_ASK_TERMINAL
c 448 CONFIG_FEATURE_INETD_SUPPORT_BUILTIN_TIME
c 449 CONFIG_FEATURE_TRACEROUTE_USE_ICMP
c 450 CONFIG_FEATURE_MDEV_LOAD_FIRMWARE
c 451 CONFIG_MDEV
c 452 CONFIG_FEATURE_SU_CHECKS_SHELLS
c 453 CONFIG_RESTORECON
c 454 CONFIG_MAKEDEVS
c 455 CONFIG_DUMPLEASES
c 456 CONFIG_PIE
c 457 CONFIG_FEATURE_MODPROBE_SMALL_OPTIONS_ON_CMDLINE
c 458 CONFIG_MKDIR
c 459 CONFIG_FEATURE_FIND_USER
c 460 CONFIG_FEATURE_TELNET_AUTOLOGIN
c 461 CONFIG_FEATURE_MODPROBE_SMALL_CHECK_ALREADY_LOADED
c 462 CONFIG_FEATURE_LESS_LINENUMS
c 463 CONFIG_FEATURE_IP_RULE
c 464 CONFIG_ASH_BUILTIN_PRINTF
c 465 CONFIG_FEATURE_CHAT_TTY_HIFI
c 466 CONFIG_FEATURE_DATE_ISOFMT
c 467 CONFIG_SUBST_WCHAR
c 468 CONFIG_HUSH_TICK
c 469 CONFIG_FEATURE_ADDUSER_LONG_OPTIONS
c 470 CONFIG_ASH_CMDCMD
c 471 CONFIG_LFS
c 472 CONFIG_FDISK_SUPPORT_LARGE_DISKS
c 473 CONFIG_FEATURE_FIND_PRUNE
c 474 CONFIG_HUSH_LOOPS
c 475 CONFIG_FEATURE_IFUPDOWN_EXTERNAL_DHCP
c 476 CONFIG_CP
c 477 CONFIG_UMOUNT
c 478 CONFIG_FEATURE_UMOUNT_ALL
c 479 CONFIG_FEATURE_AR_LONG_FILENAMES
c 480 CONFIG_FEATURE_DU_DEFAULT_BLOCKSIZE_1K
c 481 CONFIG_UNICODE_COMBINING_WCHARS
c 482 CONFIG_HUSH_CASE
c 483 CONFIG_HUSH_IF
c 484 CONFIG_SLEEP
c 485 CONFIG_FAKEIDENTD
c 486 CONFIG_FEATURE_VOLUMEID_EXT
c 487 CONFIG_FEATURE_VI_COLON
c 488 CONFIG_FEATURE_PRESERVE_HARDLINKS
c 489 CONFIG_FEATURE_FTPGETPUT_LONG_OPTIONS
c 490 CONFIG_FEATURE_HTTPD_USE_SENDFILE
c 491 CONFIG_FEATURE_HTTPD_RANGES
c 492 CONFIG_FEATURE_DC_LIBM
c 493 CONFIG_DC
c 494 CONFIG_FEATURE_WGET_AUTHENTICATION
c 495 CONFIG_DPKG_DEB
c 496 CONFIG_FEATURE_VOLUMEID_LINUXRAID
c 497 CONFIG_FEATURE_HDPARM_HDIO_GETSET_DMA
c 498 CONFIG_FEATURE_TFTP_BLOCKSIZE
c 499 CONFIG_FEATURE_UDHCP_PORT
c 500 CONFIG_FEATURE_PS_ADDITIONAL_COLUMNS
c 501 CONFIG_DEVFSD_MODLOAD
c 502 CONFIG_BUSYBOX_EXEC_PATH
c 503 CONFIG_FEATURE_DF_FANCY
c 504 CONFIG_FEATURE_TAR_OLDSUN_COMPATIBILITY
c 505 CONFIG_FEATURE_VI_USE_SIGNALS
c 506 CONFIG_FEATURE_HEXDUMP_REVERSE
c 507 CONFIG_FEATURE_INITRD
c 508 CONFIG_FEATURE_FIND_CONTEXT
c 509 CONFIG_FEATURE_TRACEROUTE_SOURCE_ROUTE
c 510 CONFIG_TELNETD
c 511 CONFIG_FEATURE_VOLUMEID_SYSV
c 512 CONFIG_FEATURE_ALLOW_EXEC
c 513 CONFIG_MKSWAP
c 514 CONFIG_FEATURE_MKSWAP_UUID
c 515 CONFIG_IPROUTE
c 516 CONFIG_FEATURE_VOLUMEID_ISO9660
c 517 CONFIG_UNICODE_WIDE_WCHARS
c 518 CONFIG_FEATURE_IFCONFIG_HW
c 519 CONFIG_FEATURE_REMOTE_LOG
c 520 CONFIG_FEATURE_DD_IBS_OBS
c 521 CONFIG_FEATURE_CHAT_SEND_ESCAPES
c 522 CONFIG_LOGGER
c 523 CONFIG_FEATURE_HTTPD_ENCODE_URL_STR
c 524 CONFIG_FEATURE_CHAT_VAR_ABORT_LEN
c 525 CONFIG_FEATURE_VI_OPTIMIZE_CURSOR
c 526 CONFIG_UNICODE_PRESERVE_BROKEN
c 527 CONFIG_FEATURE_FIND_PAREN
c 528 CONFIG_FEATURE_MOUNT_FLAGS
c 529 CONFIG_FEATURE_UDHCP_RFC3397
c 530 CONFIG_FEATURE_HTTPD_AUTH_MD5
c 531 CONFIG_FEATURE_GREP_FGREP_ALIAS
c 532 CONFIG_FEATURE_WTMP
c 533 CONFIG_FEATURE_PS_WIDE
c 534 CONFIG_FEATURE_FIND_NEWER
c 535 CONFIG_FEATURE_MOUNT_VERBOSE
c 536 CONFIG_FEATURE_SYSLOGD_READ_BUFFER_SIZE
c 537 CONFIG_FEATURE_LSMOD_PRETTY_2_6_OUTPUT
c 538 CONFIG_PASSWORD_MINLEN
c 539 CONFIG_FEATURE_UTMP
c 540 CONFIG_WHO
c 541 CONFIG_FEATURE_VI_YANKMARK
c 542 CONFIG_FEATURE_TAR_FROM
c 543 CONFIG_FEATURE_XARGS_SUPPORT_CONFIRMATION
c 544 CONFIG_FEATURE_EDITING_FANCY_PROMPT
c 545 CONFIG_FEATURE_BRCTL_SHOW
c 546 CONFIG_FEATURE_SETCONSOLE_LONG_OPTIONS
c 547 CONFIG_SETCONSOLE
c 548 CONFIG_HUSH_BASH_COMPAT
c 549 CONFIG_FEATURE_MDEV_EXEC
c 550 CONFIG_USE_BB_CRYPT
c 551 CONFIG_USE_BB_CRYPT_SHA
c 552 CONFIG_FEATURE_SUID_CONFIG_QUIET
c 553 CONFIG_ASH_ALIAS
c 554 CONFIG_FEATURE_MD5_SHA1_SUM_CHECK
c 555 CONFIG_SHA1SUM
c 556 CONFIG_SHA512SUM
c 557 CONFIG_SHA256SUM
c 558 CONFIG_MD5SUM
c 559 CONFIG_FEATURE_DPKG_DEB_EXTRACT_ONLY
c 560 CONFIG_CROSS_COMPILER_PREFIX
c 561 CONFIG_FEATURE_SETFILES_CHECK_OPTION
c 562 CONFIG_FEATURE_EXTRA_QUIET
c 563 CONFIG_FEATURE_VI_SETOPTS
c 564 CONFIG_FEATURE_TFTP_PROGRESS_BAR
c 565 CONFIG_PAM
c 566 CONFIG_FEATURE_FIND_SIZE
c 567 CONFIG_FEATURE_EDITING_ASK_TERMINAL
c 568 CONFIG_MATCHPATHCON
c 569 CONFIG_FEATURE_HTTPD_ERROR_PAGES
c 570 CONFIG_FEATURE_INSMOD_TRY_MMAP
c 571 CONFIG_FEATURE_INSTALLER
c 572 CONFIG_HUSH_EXPORT_N
c 573 CONFIG_FEATURE_PIDOF_OMIT
c 574 CONFIG_FEATURE_LESS_REGEXP
c 575 CONFIG_FEATURE_INIT_SYSLOG
c 576 CONFIG_FEATURE_VERBOSE_USAGE
c 577 CONFIG_FTPGET
c 578 CONFIG_FTPPUT
c 579 CONFIG_FEATURE_CROND_CALL_SENDMAIL
c 580 CONFIG_FEATURE_MOUNT_HELPERS
c 581 CONFIG_FEATURE_NETSTAT_WIDE
c 582 CONFIG_FEATURE_VOLUMEID_NTFS
c 583 CONFIG_FEATURE_IPCALC_FANCY
c 584 CONFIG_START_STOP_DAEMON
c 585 CONFIG_FEATURE_START_STOP_DAEMON_FANCY
c 586 CONFIG_FEATURE_VOLUMEID_JFS
c 587 CONFIG_FEATURE_INIT_SCTTY
c 588 CONFIG_FEATURE_TOP_DECIMALS
c 589 CONFIG_FEATURE_MDEV_RENAME_REGEXP
c 590 CONFIG_FEATURE_FTP_WRITE
c 591 CONFIG_FEATURE_FIND_GROUP
c 592 CONFIG_KILL
c 593 CONFIG_KILLALL5
c 594 CONFIG_DESKTOP
c 595 CONFIG_FEATURE_VOLUMEID_REISERFS
c 596 CONFIG_TFTP_DEBUG
c 597 CONFIG_FEATURE_XARGS_SUPPORT_TERMOPT
c 598 CONFIG_TAIL
c 599 CONFIG_FEATURE_FANCY_TAIL
c 600 CONFIG_FEATURE_SYSLOGD_DUP
c 601 CONFIG_FEATURE_VI_SET
c 602 CONFIG_FEATURE_MODUTILS_SYMBOLS
c 603 CONFIG_FEATURE_IFUPDOWN_MAPPING
c 604 CONFIG_FEATURE_ADDGROUP_LONG_OPTIONS
c 605 CONFIG_FEATURE_LZMA_FAST
c 606 CONFIG_UNLZMA
c 607 CONFIG_MD5_SIZE_VS_SPEED
c 608 CONFIG_FEATURE_FBSET_READMODE
c 609 CONFIG_DEVFSD_VERBOSE
c 610 CONFIG_PREFIX
c 611 CONFIG_FEATURE_MODUTILS_ALIAS
c 612 CONFIG_FEATURE_MODPROBE_BLACKLIST
c 613 CONFIG_FEATURE_TAR_OLDGNU_COMPATIBILITY
c 614 CONFIG_FEATURE_TOP_SMP_PROCESS
c 615 CONFIG_FEATURE_DEL_USER_FROM_GROUP
c 616 CONFIG_DELGROUP
c 617 CONFIG_FEATURE_SHOW_THREADS
c 618 CONFIG_FEATURE_LESS_FLAGS
c 619 CONFIG_KILLALL
c 620 CONFIG_FEATURE_FIND_PRINT0
c 621 CONFIG_RESIZE
c 622 CONFIG_FEATURE_RESIZE_PRINT
c 623 CONFIG_FEATURE_IFCONFIG_BROADCAST_PLUS
c 624 CONFIG_GETENFORCE
c 625 CONFIG_READAHEAD
c 626 CONFIG_INSTALL
c 627 CONFIG_EXTRA_CFLAGS
c 628 CONFIG_FEATURE_SECURETTY
c 629 CONFIG_GETSEBOOL
c 630 CONFIG_CHOWN
c 631 CONFIG_SETSEBOOL
1
-2 1
-3 1
-4 1
-5 1
-6 1
-7 1
-8 1
-9 1
-10 1
-11 1
-12 1
-13 1
-14 1
-15 1
-16 1
-17 1
-18 1
-19 1
-20 1
-21 1
-22 1
-23 1
-24 1
-25 1
-26 1
-27 1
-28 1
-29 1
-30 1
-31 1
-32 1
-33 1
-34 1
-35 1
-36 1
-37 1
-38 1
-39 1
-40 1
-41 1
-42 1
-43 1
-44 1
-45 1
-46 1
-47 1
-48 1
-49 1
-50 1
-51 1
-52 1
-53 1
-54 1
-55 1
-56 1
-57 1
-58 1
-59 1
-60 1
-61 1
-62 1
-63 1
-64 1
-65 1
-66 1
-67 1
-68 1
-69 1
-70 1
-71 1
-72 1
-73 1
-74 1
-75 1
-76 1
-77 1
-78 1
-79 1
-80 1
-81 1
-82 1
-83 1
-84 1
-85 1
-86 1
-87 1
-88 1
-89 1
-90 1
-91 1
-92 1
-93 1
-94 1
-95 1
-96 1
-97 1
-98 1
-99 1
-100 1
-101 1
-102 1
-103 1
-104 1
-105 1
-106 1
-107 1
-108 1
-109 1
-110 1
-111 1
-112 1
-113 1
-114 1
-115 1
-116 1
-117 1
-118 1
-119 1
-120 1
-121 1
-122 1
-123 1
-124 1
-125 1
-126 1
-127 1
-128 1
-129 1
-130 1
-131 1
-132 1
-133 1
-134 1
-135 1
-136 1
-137 1
-138 1
-139 1
-140 1
-141 1
-142 1
-143 1
-144 1
-145 1
-146 1
-147 1
-148 1
-149 1
-150 1
-151 1
-152 1
-153 1
-154 1
-155 1
-156 1
-157 1
-158 1
-159 1
-160 1
-161 1
-162 1
-163 1
-164 1
-165 1
-166 1
-167 1
-168 1
-169 1
-170 1
-171 1
-172 1
-173 1
-174 1
-175 1
-176 1
-177 1
-178 1
-179 1
-180 1
-181 1
-182 1
-183 1
-184 1
-185 1
-186 1
-187 1
-188 1
-189 1
-190 1
-191 1
-192 1
-193 1
-194 1
-195 1
-196 1
-197 1
-198 1
-199 1
-200 1
-201 1
-202 1
-203 1
-204 1
-205 1
-206 1
-207 1
-208 1
-209 1
-210 1
-211 1
-212 1
-213 1
-214 1
-215 1
-216 1
-217 1
-218 1
-219 1
-220 1
-221 1
-222 1
-223 1
-224 1
-225 1
-226 1
-227 1
-228 1
-229 1
-230 1
-231 1
-232 1
-233 1
-234 1
-235 1
-236 1
-237 1
-238 1
-239 1
-240 1
-241 1
-242 1
-243 1
-244 1
-245 1
-246 1
-247 1
-248 1
-249 1
-250 1
-251 1
-252 1
-253 1
-254 1
-255 1
-256 1
-257 1
-258 1
-259 1
-260 1
-261 1
-262 1
-263 1
-264 1
-265 1
-266 1
-267 1
-268 1
-269 1
-270 1
-271 1
-272 1
-273 1
-274 1
-275 1
-276 1
-277 1
-278 1
-279 1
-280 1
-281 1
-282 1
-283 1
-284 1
-285 1
-286 1
-287 1
-288 1
-289 1
-290 1
-291 1
-292 1
-293 1
-294 1
-295 1
-296 1
-297 1
-298 1
-299 1
-300 1
-301 1
-302 1
-303 1
-304 1
-305 1
-306 1
-307 1
-308 1
-309 1
-310 1
-311 1
-312 1
-313 1
-314 1
-315 1
-316 1
-317 1
-318 1
-319 1
-320 1
-321 1
-322 1
-323 1
-324 1
-325 1
-326 1
-327 1
-328 1
-329 1
-330 1
-331 1
-332 1
-333 1
-334 1
-335 1
-336 1
-337 1
-338 1
-339 1
-340 1
-341 1
-342 1
-343 1
-344 1
-345 1
-346 1
-347 1
-348 1
-349 1
-350 1
-351 1
-352 1
-353 1
-354 1
-355 1
-356 1
-357 1
-358 1
-359 1
-360 1
-361 1
-362 1
-363 1
-364 1
-365 1
-366 1
-367 1
-368 1
-369 1
-370 1
-371 1
-372 1
-373 1
-374 1
-375 1
-376 1
-377 1
-378 1
-379 1
-380 1
-381 1
-382 1
-383 1
-384 1
-385 1
-386 1
-387 1
-388 1
-389 1
-390 1
-391 1
-392 1
-393 1
-394 1
-395 1
-396 1
-397 1
-398 1
-399 1
-400 1
-401 1
-402 1
-403 1
-404 1
-405 1
-406 1
-407 1
-408 1
-409 1
-410 1
-411 1
-412 1
-413 1
-414 1
-415 1
-416 1
-417 1
-418 1
-419 1
-420 1
-421 1
-422 1
-423 1
-424 1
-425 1
-426 1
-427 1
-428 1
-429 1
-430 1
-431 1
-432 1
-433 1
-434 1
-435 1
-436 1
-437 1
-438 1
-439 1
-440 1
-441 1
-442 1
-443 1
-444 1
-445 1
-446 1
-447 1
-448 1
-449 1
-450 1
-451 1
-452 1
-453 1
-454 1
-455 1
-456 1
-457 1
-458 1
-459 1
-460 1
-461 1
-462 1
-463 1
-464 1
-465 1
-466 1
-467 1
-468 1
-469 1
-470 1
-471 1
-472 1
-473 1
-474 1
-475 1
-476 1
-477 1
-478 1
-479 1
-480 1
-481 1
-482 1
-483 1
-484 1
-485 1
-486 1
-487 1
-488 1
-489 1
-490 1
-491 1
-492 1
-493 1
-494 1
-495 1
-496 1
-497 1
-498 1
-499 1
-500 1
-501 1
-502 1
-503 1
-504 1
-505 1
-506 1
-507 1
-508 1
-509 1
-510 1
-511 1
-512 1
-513 1
-514 1
-515 1
-516 1
-517 1
-518 1
-519 1
-520 1
-521 1
-522 1
-523 1
-524 1
-525 1
-526 1
-527 1
-528 1
-529 1
-530 1
-531 1
-532 1
-533 1
-534 1
-535 1
-536 1
-537 1
-538 1
-539 1
-540 1
-541 1
-542 1
-543 1
-544 1
-545 1
-546 1
-547 1
-548 1
-549 1
-550 1
-551 1
-552 1
-553 1
-554 1
-555 1
-556 1
-557 1
-558 1
-559 1
-560 1
-561 1
-562 1
-563 1
-564 1
-565 1
-566 1
-567 1
-568 1
-569 1
-570 1
-571 1
-572 1
-573 1
-574 1
-575 1
-576 1
-577 1
-578 1
-579 1
-580 1
-581 1
-582 1
-583 1
-584 1
-585 1
-586 1
-587 1
-588 1
-589 1
-590 1
-591 1
-592 1
-593 1
-594 1
-595 1
-596 1
-597 1
-598 1
-599 1
-600 1
-601 1
-602 1
-603 1
-604 1
-605 1
-606 1
-607 1
-608 1
-609 1
-610 1
-611 1
-612 1
-613 1
-614 1
-615 1
-616 1
-617 1
-618 1
-619 1
-620 1
-621 1
-622 1
-623 1
-624 1
-625 1
-626 1
-627 1
-628 1
-629 1
-630 1
-631 1
-2 3
4 -5
-6 7 8
9 -10
11 -12
7 -13
9 -14
15 -16
-17 18 -19
-20 21
22 -23
24 -25
-26 27
28 -29
30 -31
32 -33 34
35 -36
37 -38
-39 40
-41 8
8 -42
43 -44
-45 46
47 -48
9 -49
50 -51 52
28 -53
54 -55
-56 47
-57 21
58 -59
60 -61
-62 7 63
-64 -65
66 -67
-68 69
-70 -71
72 -73
74 -75
8 -76
77 -78
-79 80
81 -82
83 -84
-85 86
-87 88 89
90 -91
92 -44
35 -93
94 -95 -96
-97 98
-99 100
32 -101
-102 103 104 105
106 -107
108 -109
-110 111
112 -113
114 -115
-116 28
-117 118
-62 63
-119 120
121 -122
-123 53
124 -125
-126 127
7 -128
9 -129
-100 47
-106 130 -131
32 -132
60 -133
-134 135
-136 137
-138 19
-62 8 63
-139 15
-140 15
28 -141
-142 -100
-143 144
145 -146
-147 9
-148 -149
-62 7 8
-150 47
-151 152
-153 4
154 -155
156 -157
-158 15
159 -160
-161 -162
-163 164 -80
106 -165
-57 7
32 -166
-167 -168
-169 -168
119 -120 170
8 -5
7 -171
172 -173
-71 -174
-175 176
-177 178
-179 180
181
-121 182
183 106 184 104 -185
-186 106
43 -187 -188
106 -130
-189 190
15 -191
9 -192
193 -19
-194 179
2 -3
15 -195
-196 180
-62 7
-197 60
-198 7
-199 200 201
-202 203
-204 7
-205 206
207 208 -209 210 211
212 3 -213
207 -214
178 -215
216 -217
54 -218
9 -219
7 -220
221 -222
-223 224
-225 226 187
-227 104
-228 108
-183 104
106 -229
-230 4
231 226 232 -206
145 -39
110 -111
-30 233 31
-156 106 104
-234 235
-88 236
-32 -33 34
-237 15
92 -188
238 -239
-240 19
-241 -80 242
243 -244
-245 246
43 -188
87 -89
-247 45
-128 248
249 -250
251 -252
-142 253
154 -218
183 106 184 104 -254
106 -255
-256 257
258 86 259 -260
-202 261
262
28 -263
264 -198
-265 -114
266 -267
268 -82
212 3 -269
43 -44 -188
22 -270
154 -55
69 -271
77 -78 -188
-272 -167
106 -273
274 -275 104 276
-277 278
279 -22
280 -251
-281 3
259 7 -220
94 -95
282 -283
284 -285
268 81 -82
-209 4
-286 232 206 -188
259 -220
287 -288
30 233 -31
-289 290
121 -291
54 -292
121 -293
294 -295
-296 50 52
297 -298
-299 300
-301 259
259 -302
96 -303
88 -304 89
-77 206
247 -45
-305 15
35 -306
-307 118
216 -308
-309 -148
28 -95
26 -310
-311 4
-312 4
313 -314
-315 22
-316 317
318 -112 113 319
92 -187
320 -321
35 -322
-297 323
15 -324
266 -325
-70 169
106 -103
249 -326
92 -187 -188
-327 22
-142 328
259 -329
-330 249
-331 332
-69 47
333 -31
-334 220
226 187 -335
-9 336 337 338
7 -339
264 -340
-341 342
-343 233
145 -344
-78 -188
-345 346
-347 80
178 -348
-349 350
351 259 352 -353
154 -354
-184 104
-355 356
-357 358
120 -170
15 -359
360 -361
-362 178
-114 -363
-94 95 96
233 -333 31
-65 -364
297 -323
365 -117
-366 367
-368 60
9 -369
-370 118
18 -19
7 -371
-372 118
7 373 -374
-375 319
-376 104
-225 206
-377 378
-318 112 -113
-379 15
-380 15
106 -276
106 -381
106 -130 -131
-382 383
222 -384
45 -46
385 -339
-386 4 214
60 -387
-17 18
327 -388
92 -44 -188
114 -389
47 -390
216 -391
9 -338
-392 393
79 -80 -333
206 -335
-394 15
-395 396
7 -397
-356 179
178 -398
241 -31
-243 244
-71 169
-399 224
121 -182
-400 332
7 -401
-402 118
-187 -188
216 -403
-404 9
-77 226
259 -405
-406 246
178 -407
-408 409
54 -354
-410 8
-411 300
7 -277
90 -401
43 -187
8 -412
-62 8
413 -414
-251 193
-172 173
-226 -188
112 -319
-415 416
104 -417
233 333 -31
258 -418 300
419 -420
145 -421
-422 423
-424 425
-426 7
-251 193 -19
427 -428
-172 429
130 227 430
7 -239
-241 233 31
-431 183 106 184 104
-432 317
9 -337
-433 259
142 -328
434 -435
8 -63
240 -19
-298 -295
-436 40
-437 8
89 -438
-439 15
224 -440
259 -441
442 -443
-189 7
121 -444
56 -445
-446 9
163 -164
178 -447
-448 118
-449 24
265 -254
-450 451
-452 53
-453 8
-161 454
-251 18
-455 19
87 -88
-114 -456
-457 188
458 -426
-459 15
-460 86
188 -461
291 -462
-232 -188
347 -463 -80
106 -464
-272 -168
35 -465
-347 463
-466 358
-297 467
-468 104
-469 7
106 -470
-471 154 472
-473 15
-471 -154 472
104 -474
216 -475
476 -171
477 -478
37 -479
352 -480
-481 297
-482 104
-166 47
104 -483
-96 47
-282 484
-485 47
9 -486
-487 178
313 476 -488
177 -178
7 -489
437 -6
88 -469
224 -490
224 -491
-492 493
21 -494
207 -495
-363 -456
32 -337
-429 100
272 167 169 168
9 -496
60 -497
50 -498 52
47 -53
92 -187 -44
-499 251 19
47 -135
221 -500
43 -187 -44
-308 251
-425 299
-344 24
-501 135
-174 169
-130 -131
502
94 -96
112 -113 -319
216 -289 -217
351 -503
161 162 -454
437 -6 8
47 -118
217 -31
-504 4 214
178 -505
419 -506
-279 22
-216 403
100 -507
-508 15
24 -509
47 -510
-511 9
-289 -217
178 -512 367
88 89 -236
261 -203
513 -514
-30 -80 515
9 -516
-314 7
-227 -430
-517 297
373 -374
7 -125
249 -518
-318 112
-508 8
251 -193 19
-519 180
-520 261
-463 233
35 -521
413 -13
522 56 166 150 342 485 96 100 69 -47 135 48 510 53 118 390
224 -523
35 -524
241 -242
-320 297
-525 178
-526 297
-527 15
-528 32
-318 112 -319
251 -529 19
399 -530
-309 -149
332 -531
532 -120
221 -533
-534 15
32 -535
106 -315
64 65 364
-231 -188
536 -180
9 -336
-537 232
538
-427 104
30 -233 -31
539 -540
-431 265
-541 178
-542 4
-522 47
-543 317
22 -544
-43 187 44 188
345 -545
-127 104
-546 547
-548 104
28 -96
-549 257
54 -155
-216 308 -251
-342 47
70 71 174 -169
-257 451
550 -551
-552 263
106 -553
297 -467
-167 -169
-554 555 556 557 558
-559 495
-70 -174
-266 224
-536 180
560
-561 8
-562 100
-119 -170
178 -563
-564 498
-164 80
-565 69
-566 15
-130 -227
22 -567
30 -515
-568 8
-233 333 -31
-251 18 -19
-92 187 44 188
224 -569
-570 226 188
431 265 -272 571
-22 270
87 -88 -89
-572 104
-573 393
121 -574
-545 346
100 -575
32 -33 477
-286 232 206
-576 378
577 -489 578
-579 96
32 -580
28 -342
144 -581
9 -582
124 -583
-33 34
-17 19
-11 32 477
-564 50
584 -585
9 -586
100 -587
-588 299
-532 539
-6 7
-589 256
-64 -364
233 -31
66 -590
15 -591
216 -289
592 -593
80 -515
-88 -89 236
-292 154
594 -500
-6 8
9 -595
-272 -169
-596 50 52
-597 317
-320 -295
598 -599
-89 236
-79 333
-600 180
-251 -17 18
216 -146
178 -601
7 -230
594 -222
-130 -430
80 -242
187 44 -602
216 -603
-287 510
297 -298 -295
584 -397
471 154 -472
-140 195
-604 7
251 17 -18 19
-44 -188
-605 606
607
-561 76
-166 365
98 -608
226 187 -205
-471 472
-163 233
241 233 -31
106 -130 131
135 -609
610
-611 187 44
-612 187
32 33 -34
-162 454
4 214 -613
249 -289
309 148 149
194 -179
-614 300
-615 616
221 300 -617
-280 251
-546 7
-618 121
437 -6 7
592 -619
-620 15
28 -69
621 -622
-286 -188
249 -623
233 -80
8 -624
471 -625
-204 626
627
-604 89
-628 69
241 -233 -31
-54 154
8 -629
297 -295
630 -371
166 -365 117
-631 8